# Solution for model icep
# Objective value = 288
flowLmbda[0,0] 3
flowLmbda[1,0] 3
flowBeta[0,0,0,0] 0
flowBeta[0,0,0,1] 0
flowBeta[0,0,0,2] 0
flowBeta[0,0,1,0] 0
flowBeta[0,0,1,1] 0
flowBeta[0,0,1,2] 5
flowBeta[0,1,0,0] 0
flowBeta[0,1,0,1] 0
flowBeta[0,1,0,2] 0
flowBeta[0,1,1,0] 0
flowBeta[0,1,1,1] 0
flowBeta[0,1,1,2] 5
flowBeta[0,2,0,0] 0
flowBeta[0,2,0,1] 0
flowBeta[0,2,0,2] 5
flowBeta[0,2,1,0] 0
flowBeta[0,2,1,1] 0
flowBeta[0,2,1,2] 0
flowBeta[0,3,0,0] 0
flowBeta[0,3,0,1] 0
flowBeta[0,3,0,2] 5
flowBeta[0,3,1,0] 0
flowBeta[0,3,1,1] 0
flowBeta[0,3,1,2] 0
flowBeta[0,4,0,0] 0
flowBeta[0,4,0,1] 0
flowBeta[0,4,0,2] 5
flowBeta[0,4,1,0] 0
flowBeta[0,4,1,1] 0
flowBeta[0,4,1,2] 0
flowBeta[0,5,0,0] 0
flowBeta[0,5,0,1] 0
flowBeta[0,5,0,2] 5
flowBeta[0,5,1,0] 0
flowBeta[0,5,1,1] 0
flowBeta[0,5,1,2] 0
flowBeta[0,6,0,0] 0
flowBeta[0,6,0,1] 0
flowBeta[0,6,0,2] 0
flowBeta[0,6,1,0] 0
flowBeta[0,6,1,1] 0
flowBeta[0,6,1,2] 4
flowBeta[0,7,0,0] 0
flowBeta[0,7,0,1] 0
flowBeta[0,7,0,2] 0
flowBeta[0,7,1,0] 0
flowBeta[0,7,1,1] 0
flowBeta[0,7,1,2] 5
flowBeta[0,8,0,0] 0
flowBeta[0,8,0,1] 0
flowBeta[0,8,0,2] 0
flowBeta[0,8,1,0] 0
flowBeta[0,8,1,1] 0
flowBeta[0,8,1,2] 5
flowBeta[0,9,0,0] 0
flowBeta[0,9,0,1] 2
flowBeta[0,9,0,2] 0
flowBeta[0,9,1,0] 0
flowBeta[0,9,1,1] 3
flowBeta[0,9,1,2] 0
flowBeta[0,10,0,0] 0
flowBeta[0,10,0,1] 5
flowBeta[0,10,0,2] 0
flowBeta[0,10,1,0] 0
flowBeta[0,10,1,1] 0
flowBeta[0,10,1,2] 0
flowBeta[0,11,0,0] 0
flowBeta[0,11,0,1] 0
flowBeta[0,11,0,2] 0
flowBeta[0,11,1,0] 0
flowBeta[0,11,1,1] 0
flowBeta[0,11,1,2] 0
flowGamma[0,0,0,0] 0
flowGamma[0,0,0,1] 0
flowGamma[0,0,1,0] 0
flowGamma[0,0,1,1] 0
flowGamma[0,0,2,0] 0
flowGamma[0,0,2,1] 5
flowGamma[0,1,0,0] 0
flowGamma[0,1,0,1] 0
flowGamma[0,1,1,0] 0
flowGamma[0,1,1,1] 0
flowGamma[0,1,2,0] 0
flowGamma[0,1,2,1] 5
flowGamma[0,2,0,0] 0
flowGamma[0,2,0,1] 0
flowGamma[0,2,1,0] 0
flowGamma[0,2,1,1] 0
flowGamma[0,2,2,0] 0
flowGamma[0,2,2,1] 5
flowGamma[0,3,0,0] 0
flowGamma[0,3,0,1] 0
flowGamma[0,3,1,0] 0
flowGamma[0,3,1,1] 0
flowGamma[0,3,2,0] 0
flowGamma[0,3,2,1] 5
flowGamma[0,4,0,0] 0
flowGamma[0,4,0,1] 0
flowGamma[0,4,1,0] 0
flowGamma[0,4,1,1] 0
flowGamma[0,4,2,0] 0
flowGamma[0,4,2,1] 5
flowGamma[0,5,0,0] 0
flowGamma[0,5,0,1] 0
flowGamma[0,5,1,0] 0
flowGamma[0,5,1,1] 0
flowGamma[0,5,2,0] 0
flowGamma[0,5,2,1] 5
flowGamma[0,6,0,0] 0
flowGamma[0,6,0,1] 0
flowGamma[0,6,1,0] 0
flowGamma[0,6,1,1] 0
flowGamma[0,6,2,0] 0
flowGamma[0,6,2,1] 4
flowGamma[0,7,0,0] 0
flowGamma[0,7,0,1] 0
flowGamma[0,7,1,0] 0
flowGamma[0,7,1,1] 0
flowGamma[0,7,2,0] 0
flowGamma[0,7,2,1] 5
flowGamma[0,8,0,0] 0
flowGamma[0,8,0,1] 0
flowGamma[0,8,1,0] 0
flowGamma[0,8,1,1] 0
flowGamma[0,8,2,0] 0
flowGamma[0,8,2,1] 5
flowGamma[0,9,0,0] 0
flowGamma[0,9,0,1] 0
flowGamma[0,9,1,0] 5
flowGamma[0,9,1,1] 0
flowGamma[0,9,2,0] 0
flowGamma[0,9,2,1] 0
flowGamma[0,10,0,0] 0
flowGamma[0,10,0,1] 0
flowGamma[0,10,1,0] 0
flowGamma[0,10,1,1] 5
flowGamma[0,10,2,0] 0
flowGamma[0,10,2,1] 0
flowGamma[0,11,0,0] 0
flowGamma[0,11,0,1] 0
flowGamma[0,11,1,0] 0
flowGamma[0,11,1,1] 0
flowGamma[0,11,2,0] 0
flowGamma[0,11,2,1] 0
flowEpsilon[0,0,0,0] 0
flowEpsilon[0,0,1,0] 5
flowEpsilon[0,1,0,0] 0
flowEpsilon[0,1,1,0] 5
flowEpsilon[0,2,0,0] 0
flowEpsilon[0,2,1,0] 5
flowEpsilon[0,3,0,0] 0
flowEpsilon[0,3,1,0] 5
flowEpsilon[0,4,0,0] 0
flowEpsilon[0,4,1,0] 5
flowEpsilon[0,5,0,0] 0
flowEpsilon[0,5,1,0] 5
flowEpsilon[0,6,0,0] 0
flowEpsilon[0,6,1,0] 4
flowEpsilon[0,7,0,0] 0
flowEpsilon[0,7,1,0] 5
flowEpsilon[0,8,0,0] 0
flowEpsilon[0,8,1,0] 5
flowEpsilon[0,9,0,0] 5
flowEpsilon[0,9,1,0] 0
flowEpsilon[0,10,0,0] 0
flowEpsilon[0,10,1,0] 5
flowEpsilon[0,11,0,0] 0
flowEpsilon[0,11,1,0] 0
psiSelect[0,0,0] 0
psiSelect[0,0,1] 0
psiSelect[0,0,2] 1
psiSelect[0,1,0] 0
psiSelect[0,1,1] 0
psiSelect[0,1,2] 0
gammaSelect[0,0,0,0] 0
gammaSelect[0,0,0,1] 0
gammaSelect[0,0,1,0] 0
gammaSelect[0,0,1,1] 0
gammaSelect[0,0,2,0] 0
gammaSelect[0,0,2,1] 1
gammaSelect[0,1,0,0] 0
gammaSelect[0,1,0,1] 0
gammaSelect[0,1,1,0] 0
gammaSelect[0,1,1,1] 0
gammaSelect[0,1,2,0] 0
gammaSelect[0,1,2,1] 1
gammaSelect[0,2,0,0] 0
gammaSelect[0,2,0,1] 0
gammaSelect[0,2,1,0] 0
gammaSelect[0,2,1,1] 0
gammaSelect[0,2,2,0] 0
gammaSelect[0,2,2,1] 1
gammaSelect[0,3,0,0] 0
gammaSelect[0,3,0,1] 0
gammaSelect[0,3,1,0] 0
gammaSelect[0,3,1,1] 0
gammaSelect[0,3,2,0] 0
gammaSelect[0,3,2,1] 1
gammaSelect[0,4,0,0] 0
gammaSelect[0,4,0,1] 0
gammaSelect[0,4,1,0] 0
gammaSelect[0,4,1,1] 0
gammaSelect[0,4,2,0] 0
gammaSelect[0,4,2,1] 1
gammaSelect[0,5,0,0] 0
gammaSelect[0,5,0,1] 0
gammaSelect[0,5,1,0] 0
gammaSelect[0,5,1,1] 0
gammaSelect[0,5,2,0] 0
gammaSelect[0,5,2,1] 1
gammaSelect[0,6,0,0] 0
gammaSelect[0,6,0,1] 0
gammaSelect[0,6,1,0] 0
gammaSelect[0,6,1,1] 0
gammaSelect[0,6,2,0] 0
gammaSelect[0,6,2,1] 1
gammaSelect[0,7,0,0] 0
gammaSelect[0,7,0,1] 0
gammaSelect[0,7,1,0] 0
gammaSelect[0,7,1,1] 0
gammaSelect[0,7,2,0] 0
gammaSelect[0,7,2,1] 1
gammaSelect[0,8,0,0] 0
gammaSelect[0,8,0,1] 0
gammaSelect[0,8,1,0] 0
gammaSelect[0,8,1,1] 0
gammaSelect[0,8,2,0] 0
gammaSelect[0,8,2,1] 1
gammaSelect[0,9,0,0] 0
gammaSelect[0,9,0,1] 0
gammaSelect[0,9,1,0] 1
gammaSelect[0,9,1,1] 0
gammaSelect[0,9,2,0] 0
gammaSelect[0,9,2,1] 0
gammaSelect[0,10,0,0] 0
gammaSelect[0,10,0,1] 0
gammaSelect[0,10,1,0] 0
gammaSelect[0,10,1,1] 1
gammaSelect[0,10,2,0] 0
gammaSelect[0,10,2,1] 0
gammaSelect[0,11,0,0] 0
gammaSelect[0,11,0,1] 0
gammaSelect[0,11,1,0] 0
gammaSelect[0,11,1,1] 0
gammaSelect[0,11,2,0] 0
gammaSelect[0,11,2,1] 0
deltaSelect[0,0,0,0] 0
deltaSelect[0,0,0,1] 0
deltaSelect[0,0,0,2] 0
deltaSelect[0,0,1,0] 0
deltaSelect[0,0,1,1] 0
deltaSelect[0,0,1,2] 1
deltaSelect[0,1,0,0] 0
deltaSelect[0,1,0,1] 0
deltaSelect[0,1,0,2] 0
deltaSelect[0,1,1,0] 0
deltaSelect[0,1,1,1] 0
deltaSelect[0,1,1,2] 1
deltaSelect[0,2,0,0] 0
deltaSelect[0,2,0,1] 0
deltaSelect[0,2,0,2] 0
deltaSelect[0,2,1,0] 0
deltaSelect[0,2,1,1] 0
deltaSelect[0,2,1,2] 1
deltaSelect[0,3,0,0] 0
deltaSelect[0,3,0,1] 0
deltaSelect[0,3,0,2] 0
deltaSelect[0,3,1,0] 0
deltaSelect[0,3,1,1] 0
deltaSelect[0,3,1,2] 1
deltaSelect[0,4,0,0] 0
deltaSelect[0,4,0,1] 0
deltaSelect[0,4,0,2] 0
deltaSelect[0,4,1,0] 0
deltaSelect[0,4,1,1] 0
deltaSelect[0,4,1,2] 1
deltaSelect[0,5,0,0] 0
deltaSelect[0,5,0,1] 0
deltaSelect[0,5,0,2] 0
deltaSelect[0,5,1,0] 0
deltaSelect[0,5,1,1] 0
deltaSelect[0,5,1,2] 1
deltaSelect[0,6,0,0] 0
deltaSelect[0,6,0,1] 0
deltaSelect[0,6,0,2] 0
deltaSelect[0,6,1,0] 0
deltaSelect[0,6,1,1] 0
deltaSelect[0,6,1,2] 1
deltaSelect[0,7,0,0] 0
deltaSelect[0,7,0,1] 0
deltaSelect[0,7,0,2] 0
deltaSelect[0,7,1,0] 0
deltaSelect[0,7,1,1] 0
deltaSelect[0,7,1,2] 1
deltaSelect[0,8,0,0] 0
deltaSelect[0,8,0,1] 0
deltaSelect[0,8,0,2] 0
deltaSelect[0,8,1,0] 0
deltaSelect[0,8,1,1] 1
deltaSelect[0,8,1,2] 0
deltaSelect[0,9,0,0] 0
deltaSelect[0,9,0,1] 1
deltaSelect[0,9,0,2] 0
deltaSelect[0,9,1,0] 0
deltaSelect[0,9,1,1] 0
deltaSelect[0,9,1,2] 0
deltaSelect[0,10,0,0] 0
deltaSelect[0,10,0,1] 0
deltaSelect[0,10,0,2] 0
deltaSelect[0,10,1,0] 0
deltaSelect[0,10,1,1] 0
deltaSelect[0,10,1,2] 0
deltaSelect[0,11,0,0] 0
deltaSelect[0,11,0,1] 0
deltaSelect[0,11,0,2] 0
deltaSelect[0,11,1,0] 0
deltaSelect[0,11,1,1] 0
deltaSelect[0,11,1,2] 0
timeForResourceI[0] 288
totalTime 288
